p cnf 646 2015
3 -6 51 0
-3 -6 -51 0
3 6 -51 0
-3 6 51 0
7 9 52 0
-7 9 -52 0
7 -9 -52 0
-7 -9 52 0
-10 11 53 0
10 11 -53 0
-10 -11 -53 0
10 -11 53 0
-13 -16 54 0
13 -16 -54 0
-13 16 -54 0
13 16 54 0
-18 -20 55 0
18 -20 -55 0
-18 20 -55 0
18 20 55 0
22 23 56 0
-22 23 -56 0
22 -23 -56 0
-22 -23 56 0
24 -25 57 0
-24 -25 -57 0
24 25 -57 0
-24 25 57 0
-26 29 58 0
26 29 -58 0
-26 -29 -58 0
26 -29 58 0
34 35 59 0
-34 35 -59 0
34 -35 -59 0
-34 -35 59 0
-38 41 60 0
38 41 -60 0
-38 -41 -60 0
38 -41 60 0
42 -43 61 0
-42 -43 -61 0
42 43 -61 0
-42 43 61 0
-45 -46 62 0
45 -46 -62 0
-45 46 -62 0
45 46 62 0
-47 -48 63 0
47 -48 -63 0
-47 48 -63 0
47 48 63 0
50 -51 64 0
-50 -51 -64 0
50 51 -64 0
-50 51 64 0
52 -53 65 0
-52 -53 -65 0
52 53 -65 0
-52 53 65 0
54 -55 66 0
-54 -55 -66 0
54 55 -66 0
-54 55 66 0
56 -57 67 0
-56 -57 -67 0
56 57 -67 0
-56 57 67 0
58 -59 68 0
-58 -59 -68 0
58 59 -68 0
-58 59 68 0
60 -61 69 0
-60 -61 -69 0
60 61 -69 0
-60 61 69 0
62 -63 70 0
-62 -63 -70 0
62 63 -70 0
-62 63 70 0
64 -65 71 0
-64 -65 -71 0
64 65 -71 0
-64 65 71 0
66 -67 72 0
-66 -67 -72 0
66 67 -72 0
-66 67 72 0
68 -69 73 0
-68 -69 -73 0
68 69 -73 0
-68 69 73 0
70 -71 74 0
-70 -71 -74 0
70 71 -74 0
-70 71 74 0
72 -73 75 0
-72 -73 -75 0
72 73 -75 0
-72 73 75 0
74 75 0
-74 -75 0
1 -2 76 0
-1 -2 -76 0
1 2 -76 0
-1 2 76 0
-6 -7 77 0
6 -7 -77 0
-6 7 -77 0
6 7 77 0
8 -11 78 0
-8 -11 -78 0
8 11 -78 0
-8 11 78 0
-13 14 79 0
13 14 -79 0
-13 -14 -79 0
13 -14 79 0
15 17 80 0
-15 17 -80 0
15 -17 -80 0
-15 -17 80 0
-18 -20 81 0
18 -20 -81 0
-18 20 -81 0
18 20 81 0
22 24 82 0
-22 24 -82 0
22 -24 -82 0
-22 -24 82 0
25 -28 83 0
-25 -28 -83 0
25 28 -83 0
-25 28 83 0
-29 32 84 0
29 32 -84 0
-29 -32 -84 0
29 -32 84 0
33 34 85 0
-33 34 -85 0
33 -34 -85 0
-33 -34 85 0
37 -38 86 0
-37 -38 -86 0
37 38 -86 0
-37 38 86 0
39 -44 87 0
-39 -44 -87 0
39 44 -87 0
-39 44 87 0
-45 48 88 0
45 48 -88 0
-45 -48 -88 0
45 -48 88 0
75 -76 89 0
-75 -76 -89 0
75 76 -89 0
-75 76 89 0
77 -78 90 0
-77 -78 -90 0
77 78 -90 0
-77 78 90 0
79 -80 91 0
-79 -80 -91 0
79 80 -91 0
-79 80 91 0
81 -82 92 0
-81 -82 -92 0
81 82 -92 0
-81 82 92 0
83 -84 93 0
-83 -84 -93 0
83 84 -93 0
-83 84 93 0
85 -86 94 0
-85 -86 -94 0
85 86 -94 0
-85 86 94 0
87 -88 95 0
-87 -88 -95 0
87 88 -95 0
-87 88 95 0
89 -90 96 0
-89 -90 -96 0
89 90 -96 0
-89 90 96 0
91 -92 97 0
-91 -92 -97 0
91 92 -97 0
-91 92 97 0
93 -94 98 0
-93 -94 -98 0
93 94 -98 0
-93 94 98 0
95 -96 99 0
-95 -96 -99 0
95 96 -99 0
-95 96 99 0
97 -98 100 0
-97 -98 -100 0
97 98 -100 0
-97 98 100 0
99 100 0
-99 -100 0
-1 2 101 0
1 2 -101 0
-1 -2 -101 0
1 -2 101 0
-3 4 102 0
3 4 -102 0
-3 -4 -102 0
3 -4 102 0
5 11 103 0
-5 11 -103 0
5 -11 -103 0
-5 -11 103 0
-12 13 104 0
12 13 -104 0
-12 -13 -104 0
12 -13 104 0
17 18 105 0
-17 18 -105 0
17 -18 -105 0
-17 -18 105 0
19 22 106 0
-19 22 -106 0
19 -22 -106 0
-19 -22 106 0
25 -26 107 0
-25 -26 -107 0
25 26 -107 0
-25 26 107 0
27 29 108 0
-27 29 -108 0
27 -29 -108 0
-27 -29 108 0
-31 32 109 0
31 32 -109 0
-31 -32 -109 0
31 -32 109 0
-33 -34 110 0
33 -34 -110 0
-33 34 -110 0
33 34 110 0
-35 -36 111 0
35 -36 -111 0
-35 36 -111 0
35 36 111 0
-38 41 112 0
38 41 -112 0
-38 -41 -112 0
38 -41 112 0
43 -45 113 0
-43 -45 -113 0
43 45 -113 0
-43 45 113 0
-46 47 114 0
46 47 -114 0
-46 -47 -114 0
46 -47 114 0
48 49 115 0
-48 49 -115 0
48 -49 -115 0
-48 -49 115 0
101 -102 116 0
-101 -102 -116 0
101 102 -116 0
-101 102 116 0
103 -104 117 0
-103 -104 -117 0
103 104 -117 0
-103 104 117 0
105 -106 118 0
-105 -106 -118 0
105 106 -118 0
-105 106 118 0
107 -108 119 0
-107 -108 -119 0
107 108 -119 0
-107 108 119 0
109 -110 120 0
-109 -110 -120 0
109 110 -120 0
-109 110 120 0
111 -112 121 0
-111 -112 -121 0
111 112 -121 0
-111 112 121 0
113 -114 122 0
-113 -114 -122 0
113 114 -122 0
-113 114 122 0
115 -116 123 0
-115 -116 -123 0
115 116 -123 0
-115 116 123 0
117 -118 124 0
-117 -118 -124 0
117 118 -124 0
-117 118 124 0
119 -120 125 0
-119 -120 -125 0
119 120 -125 0
-119 120 125 0
121 -122 126 0
-121 -122 -126 0
121 122 -126 0
-121 122 126 0
123 -124 127 0
-123 -124 -127 0
123 124 -127 0
-123 124 127 0
125 -126 128 0
-125 -126 -128 0
125 126 -128 0
-125 126 128 0
127 128 0
-127 -128 0
-1 -3 129 0
1 -3 -129 0
-1 3 -129 0
1 3 129 0
-5 -6 130 0
5 -6 -130 0
-5 6 -130 0
5 6 130 0
-8 -9 131 0
8 -9 -131 0
-8 9 -131 0
8 9 131 0
-11 14 132 0
11 14 -132 0
-11 -14 -132 0
11 -14 132 0
-18 20 133 0
18 20 -133 0
-18 -20 -133 0
18 -20 133 0
-22 24 134 0
22 24 -134 0
-22 -24 -134 0
22 -24 134 0
26 28 135 0
-26 28 -135 0
26 -28 -135 0
-26 -28 135 0
31 -32 136 0
-31 -32 -136 0
31 32 -136 0
-31 32 136 0
-37 -38 137 0
37 -38 -137 0
-37 38 -137 0
37 38 137 0
-40 -42 138 0
40 -42 -138 0
-40 42 -138 0
40 42 138 0
43 44 139 0
-43 44 -139 0
43 -44 -139 0
-43 -44 139 0
45 -46 140 0
-45 -46 -140 0
45 46 -140 0
-45 46 140 0
128 -129 141 0
-128 -129 -141 0
128 129 -141 0
-128 129 141 0
130 -131 142 0
-130 -131 -142 0
130 131 -142 0
-130 131 142 0
132 -133 143 0
-132 -133 -143 0
132 133 -143 0
-132 133 143 0
134 -135 144 0
-134 -135 -144 0
134 135 -144 0
-134 135 144 0
136 -137 145 0
-136 -137 -145 0
136 137 -145 0
-136 137 145 0
138 -139 146 0
-138 -139 -146 0
138 139 -146 0
-138 139 146 0
140 -141 147 0
-140 -141 -147 0
140 141 -147 0
-140 141 147 0
142 -143 148 0
-142 -143 -148 0
142 143 -148 0
-142 143 148 0
144 -145 149 0
-144 -145 -149 0
144 145 -149 0
-144 145 149 0
146 -147 150 0
-146 -147 -150 0
146 147 -150 0
-146 147 150 0
148 -149 151 0
-148 -149 -151 0
148 149 -151 0
-148 149 151 0
150 151 0
-150 -151 0
-3 15 152 0
3 15 -152 0
-3 -15 -152 0
3 -15 152 0
16 -20 153 0
-16 -20 -153 0
16 20 -153 0
-16 20 153 0
-21 -22 154 0
21 -22 -154 0
-21 22 -154 0
21 22 154 0
23 24 155 0
-23 24 -155 0
23 -24 -155 0
-23 -24 155 0
25 -27 156 0
-25 -27 -156 0
25 27 -156 0
-25 27 156 0
-29 30 157 0
29 30 -157 0
-29 -30 -157 0
29 -30 157 0
32 -35 158 0
-32 -35 -158 0
32 35 -158 0
-32 35 158 0
36 37 159 0
-36 37 -159 0
36 -37 -159 0
-36 -37 159 0
40 -41 160 0
-40 -41 -160 0
40 41 -160 0
-40 41 160 0
151 -152 161 0
-151 -152 -161 0
151 152 -161 0
-151 152 161 0
153 -154 162 0
-153 -154 -162 0
153 154 -162 0
-153 154 162 0
155 -156 163 0
-155 -156 -163 0
155 156 -163 0
-155 156 163 0
157 -158 164 0
-157 -158 -164 0
157 158 -164 0
-157 158 164 0
159 -160 165 0
-159 -160 -165 0
159 160 -165 0
-159 160 165 0
161 -162 166 0
-161 -162 -166 0
161 162 -166 0
-161 162 166 0
163 -164 167 0
-163 -164 -167 0
163 164 -167 0
-163 164 167 0
-165 -166 167 0
165 -166 -167 0
-165 166 -167 0
165 166 167 0
-1 3 168 0
1 3 -168 0
-1 -3 -168 0
1 -3 168 0
4 5 169 0
-4 5 -169 0
4 -5 -169 0
-4 -5 169 0
-6 8 170 0
6 8 -170 0
-6 -8 -170 0
6 -8 170 0
-13 15 171 0
13 15 -171 0
-13 -15 -171 0
13 -15 171 0
-17 -18 172 0
17 -18 -172 0
-17 18 -172 0
17 18 172 0
-19 -23 173 0
19 -23 -173 0
-19 23 -173 0
19 23 173 0
-24 -25 174 0
24 -25 -174 0
-24 25 -174 0
24 25 174 0
28 31 175 0
-28 31 -175 0
28 -31 -175 0
-28 -31 175 0
-32 -33 176 0
32 -33 -176 0
-32 33 -176 0
32 33 176 0
-34 -35 177 0
34 -35 -177 0
-34 35 -177 0
34 35 177 0
-37 38 178 0
37 38 -178 0
-37 -38 -178 0
37 -38 178 0
40 -42 179 0
-40 -42 -179 0
40 42 -179 0
-40 42 179 0
44 46 180 0
-44 46 -180 0
44 -46 -180 0
-44 -46 180 0
47 49 181 0
-47 49 -181 0
47 -49 -181 0
-47 -49 181 0
167 -168 182 0
-167 -168 -182 0
167 168 -182 0
-167 168 182 0
169 -170 183 0
-169 -170 -183 0
169 170 -183 0
-169 170 183 0
171 -172 184 0
-171 -172 -184 0
171 172 -184 0
-171 172 184 0
173 -174 185 0
-173 -174 -185 0
173 174 -185 0
-173 174 185 0
175 -176 186 0
-175 -176 -186 0
175 176 -186 0
-175 176 186 0
177 -178 187 0
-177 -178 -187 0
177 178 -187 0
-177 178 187 0
179 -180 188 0
-179 -180 -188 0
179 180 -188 0
-179 180 188 0
181 -182 189 0
-181 -182 -189 0
181 182 -189 0
-181 182 189 0
183 -184 190 0
-183 -184 -190 0
183 184 -190 0
-183 184 190 0
185 -186 191 0
-185 -186 -191 0
185 186 -191 0
-185 186 191 0
187 -188 192 0
-187 -188 -192 0
187 188 -192 0
-187 188 192 0
189 -190 193 0
-189 -190 -193 0
189 190 -193 0
-189 190 193 0
191 -192 194 0
-191 -192 -194 0
191 192 -194 0
-191 192 194 0
193 194 0
-193 -194 0
1 2 195 0
-1 2 -195 0
1 -2 -195 0
-1 -2 195 0
3 6 196 0
-3 6 -196 0
3 -6 -196 0
-3 -6 196 0
-7 -9 197 0
7 -9 -197 0
-7 9 -197 0
7 9 197 0
14 16 198 0
-14 16 -198 0
14 -16 -198 0
-14 -16 198 0
19 20 199 0
-19 20 -199 0
19 -20 -199 0
-19 -20 199 0
-25 -26 200 0
25 -26 -200 0
-25 26 -200 0
25 26 200 0
-28 29 201 0
28 29 -201 0
-28 -29 -201 0
28 -29 201 0
31 32 202 0
-31 32 -202 0
31 -32 -202 0
-31 -32 202 0
-35 -36 203 0
35 -36 -203 0
-35 36 -203 0
35 36 203 0
37 38 204 0
-37 38 -204 0
37 -38 -204 0
-37 -38 204 0
40 -45 205 0
-40 -45 -205 0
40 45 -205 0
-40 45 205 0
47 -48 206 0
-47 -48 -206 0
47 48 -206 0
-47 48 206 0
-49 -50 207 0
49 -50 -207 0
-49 50 -207 0
49 50 207 0
195 -196 208 0
-195 -196 -208 0
195 196 -208 0
-195 196 208 0
197 -198 209 0
-197 -198 -209 0
197 198 -209 0
-197 198 209 0
199 -200 210 0
-199 -200 -210 0
199 200 -210 0
-199 200 210 0
201 -202 211 0
-201 -202 -211 0
201 202 -211 0
-201 202 211 0
203 -204 212 0
-203 -204 -212 0
203 204 -212 0
-203 204 212 0
205 -206 213 0
-205 -206 -213 0
205 206 -213 0
-205 206 213 0
207 -208 214 0
-207 -208 -214 0
207 208 -214 0
-207 208 214 0
209 -210 215 0
-209 -210 -215 0
209 210 -215 0
-209 210 215 0
211 -212 216 0
-211 -212 -216 0
211 212 -216 0
-211 212 216 0
213 -214 217 0
-213 -214 -217 0
213 214 -217 0
-213 214 217 0
215 -216 218 0
-215 -216 -218 0
215 216 -218 0
-215 216 218 0
217 218 0
-217 -218 0
1 -4 219 0
-1 -4 -219 0
1 4 -219 0
-1 4 219 0
-5 7 220 0
5 7 -220 0
-5 -7 -220 0
5 -7 220 0
9 -10 221 0
-9 -10 -221 0
9 10 -221 0
-9 10 221 0
-11 -17 222 0
11 -17 -222 0
-11 17 -222 0
11 17 222 0
-19 21 223 0
19 21 -223 0
-19 -21 -223 0
19 -21 223 0
22 24 224 0
-22 24 -224 0
22 -24 -224 0
-22 -24 224 0
25 -26 225 0
-25 -26 -225 0
25 26 -225 0
-25 26 225 0
-28 29 226 0
28 29 -226 0
-28 -29 -226 0
28 -29 226 0
32 33 227 0
-32 33 -227 0
32 -33 -227 0
-32 -33 227 0
-34 -35 228 0
34 -35 -228 0
-34 35 -228 0
34 35 228 0
-36 -37 229 0
36 -37 -229 0
-36 37 -229 0
36 37 229 0
40 41 230 0
-40 41 -230 0
40 -41 -230 0
-40 -41 230 0
-43 44 231 0
43 44 -231 0
-43 -44 -231 0
43 -44 231 0
47 48 232 0
-47 48 -232 0
47 -48 -232 0
-47 -48 232 0
219 -220 233 0
-219 -220 -233 0
219 220 -233 0
-219 220 233 0
221 -222 234 0
-221 -222 -234 0
221 222 -234 0
-221 222 234 0
223 -224 235 0
-223 -224 -235 0
223 224 -235 0
-223 224 235 0
225 -226 236 0
-225 -226 -236 0
225 226 -236 0
-225 226 236 0
227 -228 237 0
-227 -228 -237 0
227 228 -237 0
-227 228 237 0
229 -230 238 0
-229 -230 -238 0
229 230 -238 0
-229 230 238 0
231 -232 239 0
-231 -232 -239 0
231 232 -239 0
-231 232 239 0
233 -234 240 0
-233 -234 -240 0
233 234 -240 0
-233 234 240 0
235 -236 241 0
-235 -236 -241 0
235 236 -241 0
-235 236 241 0
237 -238 242 0
-237 -238 -242 0
237 238 -242 0
-237 238 242 0
239 -240 243 0
-239 -240 -243 0
239 240 -243 0
-239 240 243 0
241 -242 244 0
-241 -242 -244 0
241 242 -244 0
-241 242 244 0
243 244 0
-243 -244 0
-9 -10 245 0
9 -10 -245 0
-9 10 -245 0
9 10 245 0
-11 12 246 0
11 12 -246 0
-11 -12 -246 0
11 -12 246 0
13 -14 247 0
-13 -14 -247 0
13 14 -247 0
-13 14 247 0
-16 -17 248 0
16 -17 -248 0
-16 17 -248 0
16 17 248 0
18 -21 249 0
-18 -21 -249 0
18 21 -249 0
-18 21 249 0
-26 -28 250 0
26 -28 -250 0
-26 28 -250 0
26 28 250 0
-31 -33 251 0
31 -33 -251 0
-31 33 -251 0
31 33 251 0
36 37 252 0
-36 37 -252 0
36 -37 -252 0
-36 -37 252 0
-39 -40 253 0
39 -40 -253 0
-39 40 -253 0
39 40 253 0
43 44 254 0
-43 44 -254 0
43 -44 -254 0
-43 -44 254 0
46 -48 255 0
-46 -48 -255 0
46 48 -255 0
-46 48 255 0
244 -245 256 0
-244 -245 -256 0
244 245 -256 0
-244 245 256 0
246 -247 257 0
-246 -247 -257 0
246 247 -257 0
-246 247 257 0
248 -249 258 0
-248 -249 -258 0
248 249 -258 0
-248 249 258 0
250 -251 259 0
-250 -251 -259 0
250 251 -259 0
-250 251 259 0
252 -253 260 0
-252 -253 -260 0
252 253 -260 0
-252 253 260 0
254 -255 261 0
-254 -255 -261 0
254 255 -261 0
-254 255 261 0
256 -257 262 0
-256 -257 -262 0
256 257 -262 0
-256 257 262 0
258 -259 263 0
-258 -259 -263 0
258 259 -263 0
-258 259 263 0
260 -261 264 0
-260 -261 -264 0
260 261 -264 0
-260 261 264 0
-262 -263 264 0
262 -263 -264 0
-262 263 -264 0
262 263 264 0
-2 -3 265 0
2 -3 -265 0
-2 3 -265 0
2 3 265 0
9 10 266 0
-9 10 -266 0
9 -10 -266 0
-9 -10 266 0
-12 -15 267 0
12 -15 -267 0
-12 15 -267 0
12 15 267 0
17 -22 268 0
-17 -22 -268 0
17 22 -268 0
-17 22 268 0
-23 24 269 0
23 24 -269 0
-23 -24 -269 0
23 -24 269 0
-25 -26 270 0
25 -26 -270 0
-25 26 -270 0
25 26 270 0
-29 -35 271 0
29 -35 -271 0
-29 35 -271 0
29 35 271 0
-36 37 272 0
36 37 -272 0
-36 -37 -272 0
36 -37 272 0
-39 41 273 0
39 41 -273 0
-39 -41 -273 0
39 -41 273 0
-42 43 274 0
42 43 -274 0
-42 -43 -274 0
42 -43 274 0
45 46 275 0
-45 46 -275 0
45 -46 -275 0
-45 -46 275 0
-47 48 276 0
47 48 -276 0
-47 -48 -276 0
47 -48 276 0
264 -265 277 0
-264 -265 -277 0
264 265 -277 0
-264 265 277 0
266 -267 278 0
-266 -267 -278 0
266 267 -278 0
-266 267 278 0
268 -269 279 0
-268 -269 -279 0
268 269 -279 0
-268 269 279 0
270 -271 280 0
-270 -271 -280 0
270 271 -280 0
-270 271 280 0
272 -273 281 0
-272 -273 -281 0
272 273 -281 0
-272 273 281 0
274 -275 282 0
-274 -275 -282 0
274 275 -282 0
-274 275 282 0
276 -277 283 0
-276 -277 -283 0
276 277 -283 0
-276 277 283 0
278 -279 284 0
-278 -279 -284 0
278 279 -284 0
-278 279 284 0
280 -281 285 0
-280 -281 -285 0
280 281 -285 0
-280 281 285 0
282 -283 286 0
-282 -283 -286 0
282 283 -286 0
-282 283 286 0
284 -285 287 0
-284 -285 -287 0
284 285 -287 0
-284 285 287 0
286 287 0
-286 -287 0
-1 3 288 0
1 3 -288 0
-1 -3 -288 0
1 -3 288 0
-8 9 289 0
8 9 -289 0
-8 -9 -289 0
8 -9 289 0
12 -13 290 0
-12 -13 -290 0
12 13 -290 0
-12 13 290 0
14 -15 291 0
-14 -15 -291 0
14 15 -291 0
-14 15 291 0
16 -18 292 0
-16 -18 -292 0
16 18 -292 0
-16 18 292 0
24 -25 293 0
-24 -25 -293 0
24 25 -293 0
-24 25 293 0
-27 -28 294 0
27 -28 -294 0
-27 28 -294 0
27 28 294 0
-29 32 295 0
29 32 -295 0
-29 -32 -295 0
29 -32 295 0
-34 -36 296 0
34 -36 -296 0
-34 36 -296 0
34 36 296 0
37 -38 297 0
-37 -38 -297 0
37 38 -297 0
-37 38 297 0
45 50 298 0
-45 50 -298 0
45 -50 -298 0
-45 -50 298 0
288 -289 299 0
-288 -289 -299 0
288 289 -299 0
-288 289 299 0
290 -291 300 0
-290 -291 -300 0
290 291 -300 0
-290 291 300 0
292 -293 301 0
-292 -293 -301 0
292 293 -301 0
-292 293 301 0
294 -295 302 0
-294 -295 -302 0
294 295 -302 0
-294 295 302 0
296 -297 303 0
-296 -297 -303 0
296 297 -303 0
-296 297 303 0
298 -299 304 0
-298 -299 -304 0
298 299 -304 0
-298 299 304 0
300 -301 305 0
-300 -301 -305 0
300 301 -305 0
-300 301 305 0
302 -303 306 0
-302 -303 -306 0
302 303 -306 0
-302 303 306 0
-304 -305 306 0
304 -305 -306 0
-304 305 -306 0
304 305 306 0
3 -5 307 0
-3 -5 -307 0
3 5 -307 0
-3 5 307 0
-6 7 308 0
6 7 -308 0
-6 -7 -308 0
6 -7 308 0
-9 -10 309 0
9 -10 -309 0
-9 10 -309 0
9 10 309 0
11 -12 310 0
-11 -12 -310 0
11 12 -310 0
-11 12 310 0
15 -16 311 0
-15 -16 -311 0
15 16 -311 0
-15 16 311 0
19 -23 312 0
-19 -23 -312 0
19 23 -312 0
-19 23 312 0
24 26 313 0
-24 26 -313 0
24 -26 -313 0
-24 -26 313 0
-29 31 314 0
29 31 -314 0
-29 -31 -314 0
29 -31 314 0
32 -33 315 0
-32 -33 -315 0
32 33 -315 0
-32 33 315 0
35 -36 316 0
-35 -36 -316 0
35 36 -316 0
-35 36 316 0
-38 -40 317 0
38 -40 -317 0
-38 40 -317 0
38 40 317 0
-41 -42 318 0
41 -42 -318 0
-41 42 -318 0
41 42 318 0
47 -50 319 0
-47 -50 -319 0
47 50 -319 0
-47 50 319 0
307 -308 320 0
-307 -308 -320 0
307 308 -320 0
-307 308 320 0
309 -310 321 0
-309 -310 -321 0
309 310 -321 0
-309 310 321 0
311 -312 322 0
-311 -312 -322 0
311 312 -322 0
-311 312 322 0
313 -314 323 0
-313 -314 -323 0
313 314 -323 0
-313 314 323 0
315 -316 324 0
-315 -316 -324 0
315 316 -324 0
-315 316 324 0
317 -318 325 0
-317 -318 -325 0
317 318 -325 0
-317 318 325 0
319 -320 326 0
-319 -320 -326 0
319 320 -326 0
-319 320 326 0
321 -322 327 0
-321 -322 -327 0
321 322 -327 0
-321 322 327 0
323 -324 328 0
-323 -324 -328 0
323 324 -328 0
-323 324 328 0
325 -326 329 0
-325 -326 -329 0
325 326 -329 0
-325 326 329 0
327 -328 330 0
-327 -328 -330 0
327 328 -330 0
-327 328 330 0
329 330 0
-329 -330 0
-1 8 331 0
1 8 -331 0
-1 -8 -331 0
1 -8 331 0
-13 -15 332 0
13 -15 -332 0
-13 15 -332 0
13 15 332 0
-16 -18 333 0
16 -18 -333 0
-16 18 -333 0
16 18 333 0
19 21 334 0
-19 21 -334 0
19 -21 -334 0
-19 -21 334 0
23 -25 335 0
-23 -25 -335 0
23 25 -335 0
-23 25 335 0
-29 -30 336 0
29 -30 -336 0
-29 30 -336 0
29 30 336 0
-32 33 337 0
32 33 -337 0
-32 -33 -337 0
32 -33 337 0
35 36 338 0
-35 36 -338 0
35 -36 -338 0
-35 -36 338 0
37 38 339 0
-37 38 -339 0
37 -38 -339 0
-37 -38 339 0
39 -41 340 0
-39 -41 -340 0
39 41 -340 0
-39 41 340 0
-42 -48 341 0
42 -48 -341 0
-42 48 -341 0
42 48 341 0
49 -50 342 0
-49 -50 -342 0
49 50 -342 0
-49 50 342 0
331 -332 343 0
-331 -332 -343 0
331 332 -343 0
-331 332 343 0
333 -334 344 0
-333 -334 -344 0
333 334 -344 0
-333 334 344 0
335 -336 345 0
-335 -336 -345 0
335 336 -345 0
-335 336 345 0
337 -338 346 0
-337 -338 -346 0
337 338 -346 0
-337 338 346 0
339 -340 347 0
-339 -340 -347 0
339 340 -347 0
-339 340 347 0
341 -342 348 0
-341 -342 -348 0
341 342 -348 0
-341 342 348 0
343 -344 349 0
-343 -344 -349 0
343 344 -349 0
-343 344 349 0
345 -346 350 0
-345 -346 -350 0
345 346 -350 0
-345 346 350 0
347 -348 351 0
-347 -348 -351 0
347 348 -351 0
-347 348 351 0
-349 -350 351 0
349 -350 -351 0
-349 350 -351 0
349 350 351 0
-1 -10 352 0
1 -10 -352 0
-1 10 -352 0
1 10 352 0
-12 -13 353 0
12 -13 -353 0
-12 13 -353 0
12 13 353 0
14 18 354 0
-14 18 -354 0
14 -18 -354 0
-14 -18 354 0
-19 -20 355 0
19 -20 -355 0
-19 20 -355 0
19 20 355 0
-22 -23 356 0
22 -23 -356 0
-22 23 -356 0
22 23 356 0
25 -26 357 0
-25 -26 -357 0
25 26 -357 0
-25 26 357 0
-28 34 358 0
28 34 -358 0
-28 -34 -358 0
28 -34 358 0
38 40 359 0
-38 40 -359 0
38 -40 -359 0
-38 -40 359 0
-41 43 360 0
41 43 -360 0
-41 -43 -360 0
41 -43 360 0
-44 47 361 0
44 47 -361 0
-44 -47 -361 0
44 -47 361 0
351 -352 362 0
-351 -352 -362 0
351 352 -362 0
-351 352 362 0
353 -354 363 0
-353 -354 -363 0
353 354 -363 0
-353 354 363 0
355 -356 364 0
-355 -356 -364 0
355 356 -364 0
-355 356 364 0
357 -358 365 0
-357 -358 -365 0
357 358 -365 0
-357 358 365 0
359 -360 366 0
-359 -360 -366 0
359 360 -366 0
-359 360 366 0
361 -362 367 0
-361 -362 -367 0
361 362 -367 0
-361 362 367 0
363 -364 368 0
-363 -364 -368 0
363 364 -368 0
-363 364 368 0
365 -366 369 0
-365 -366 -369 0
365 366 -369 0
-365 366 369 0
-367 -368 369 0
367 -368 -369 0
-367 368 -369 0
367 368 369 0
-1 8 370 0
1 8 -370 0
-1 -8 -370 0
1 -8 370 0
9 10 371 0
-9 10 -371 0
9 -10 -371 0
-9 -10 371 0
11 12 372 0
-11 12 -372 0
11 -12 -372 0
-11 -12 372 0
13 15 373 0
-13 15 -373 0
13 -15 -373 0
-13 -15 373 0
-18 21 374 0
18 21 -374 0
-18 -21 -374 0
18 -21 374 0
-23 25 375 0
23 25 -375 0
-23 -25 -375 0
23 -25 375 0
26 -27 376 0
-26 -27 -376 0
26 27 -376 0
-26 27 376 0
28 29 377 0
-28 29 -377 0
28 -29 -377 0
-28 -29 377 0
30 -38 378 0
-30 -38 -378 0
30 38 -378 0
-30 38 378 0
-41 -43 379 0
41 -43 -379 0
-41 43 -379 0
41 43 379 0
-48 49 380 0
48 49 -380 0
-48 -49 -380 0
48 -49 380 0
370 -371 381 0
-370 -371 -381 0
370 371 -381 0
-370 371 381 0
372 -373 382 0
-372 -373 -382 0
372 373 -382 0
-372 373 382 0
374 -375 383 0
-374 -375 -383 0
374 375 -383 0
-374 375 383 0
376 -377 384 0
-376 -377 -384 0
376 377 -384 0
-376 377 384 0
378 -379 385 0
-378 -379 -385 0
378 379 -385 0
-378 379 385 0
380 -381 386 0
-380 -381 -386 0
380 381 -386 0
-380 381 386 0
382 -383 387 0
-382 -383 -387 0
382 383 -387 0
-382 383 387 0
384 -385 388 0
-384 -385 -388 0
384 385 -388 0
-384 385 388 0
-386 -387 388 0
386 -387 -388 0
-386 387 -388 0
386 387 388 0
-12 389 0
-24 389 0
-12 -24 390 0
-23 389 0
-12 -23 390 0
-24 -23 390 0
-12 -24 -23 391 0
-22 392 0
-21 392 0
-22 -21 393 0
-20 392 0
-22 -20 393 0
-21 -20 393 0
-22 -21 -20 394 0
-389 395 0
-390 396 0
-391 397 0
-392 395 0
-393 396 0
-394 397 0
-389 -392 396 0
-389 -393 397 0
-389 -394 398 0
-390 -392 397 0
-390 -393 398 0
-390 -394 399 0
-391 -392 398 0
-391 -393 399 0
-391 -394 400 0
-19 401 0
-18 401 0
-19 -18 402 0
-17 401 0
-19 -17 402 0
-18 -17 402 0
-19 -18 -17 403 0
-16 404 0
-15 404 0
-16 -15 405 0
-14 404 0
-16 -14 405 0
-15 -14 405 0
-16 -15 -14 406 0
-401 407 0
-402 408 0
-403 409 0
-404 407 0
-405 408 0
-406 409 0
-401 -404 408 0
-401 -405 409 0
-401 -406 410 0
-402 -404 409 0
-402 -405 410 0
-402 -406 411 0
-403 -404 410 0
-403 -405 411 0
-403 -406 412 0
-13 413 0
-25 413 0
-13 -25 414 0
-11 413 0
-13 -11 414 0
-25 -11 414 0
-13 -25 -11 415 0
-10 416 0
-9 416 0
-10 -9 417 0
-8 416 0
-10 -8 417 0
-9 -8 417 0
-10 -9 -8 418 0
-413 419 0
-414 420 0
-415 421 0
-416 419 0
-417 420 0
-418 421 0
-413 -416 420 0
-413 -417 421 0
-413 -418 422 0
-414 -416 421 0
-414 -417 422 0
-414 -418 423 0
-415 -416 422 0
-415 -417 423 0
-415 -418 424 0
-7 425 0
-6 425 0
-7 -6 426 0
-5 425 0
-7 -5 426 0
-6 -5 426 0
-7 -6 -5 427 0
-4 428 0
-3 428 0
-4 -3 429 0
-2 430 0
-1 430 0
-2 -1 431 0
-37 430 0
-2 -37 431 0
-1 -37 431 0
-2 -1 -37 432 0
-428 433 0
-429 434 0
-430 433 0
-431 434 0
-432 435 0
-428 -430 434 0
-428 -431 435 0
-428 -432 436 0
-429 -430 435 0
-429 -431 436 0
-429 -432 437 0
-425 438 0
-426 439 0
-427 440 0
-433 438 0
-434 439 0
-435 440 0
-436 441 0
-437 442 0
-425 -433 439 0
-425 -434 440 0
-425 -435 441 0
-425 -436 442 0
-425 -437 443 0
-426 -433 440 0
-426 -434 441 0
-426 -435 442 0
-426 -436 443 0
-426 -437 444 0
-427 -433 441 0
-427 -434 442 0
-427 -435 443 0
-427 -436 444 0
-427 -437 445 0
-49 446 0
-48 446 0
-49 -48 447 0
-47 446 0
-49 -47 447 0
-48 -47 447 0
-49 -48 -47 448 0
-46 449 0
-45 449 0
-46 -45 450 0
-44 451 0
-43 451 0
-44 -43 452 0
-42 451 0
-44 -42 452 0
-43 -42 452 0
-44 -43 -42 453 0
-449 454 0
-450 455 0
-451 454 0
-452 455 0
-453 456 0
-449 -451 455 0
-449 -452 456 0
-449 -453 457 0
-450 -451 456 0
-450 -452 457 0
-450 -453 458 0
-446 459 0
-447 460 0
-448 461 0
-454 459 0
-455 460 0
-456 461 0
-457 462 0
-458 463 0
-446 -454 460 0
-446 -455 461 0
-446 -456 462 0
-446 -457 463 0
-446 -458 464 0
-447 -454 461 0
-447 -455 462 0
-447 -456 463 0
-447 -457 464 0
-447 -458 465 0
-448 -454 462 0
-448 -455 463 0
-448 -456 464 0
-448 -457 465 0
-448 -458 466 0
-41 467 0
-40 467 0
-41 -40 468 0
-39 467 0
-41 -39 468 0
-40 -39 468 0
-41 -40 -39 469 0
-38 470 0
-50 470 0
-38 -50 471 0
-36 472 0
-35 472 0
-36 -35 473 0
-34 472 0
-36 -34 473 0
-35 -34 473 0
-36 -35 -34 474 0
-470 475 0
-471 476 0
-472 475 0
-473 476 0
-474 477 0
-470 -472 476 0
-470 -473 477 0
-470 -474 478 0
-471 -472 477 0
-471 -473 478 0
-471 -474 479 0
-467 480 0
-468 481 0
-469 482 0
-475 480 0
-476 481 0
-477 482 0
-478 483 0
-479 484 0
-467 -475 481 0
-467 -476 482 0
-467 -477 483 0
-467 -478 484 0
-467 -479 485 0
-468 -475 482 0
-468 -476 483 0
-468 -477 484 0
-468 -478 485 0
-468 -479 486 0
-469 -475 483 0
-469 -476 484 0
-469 -477 485 0
-469 -478 486 0
-469 -479 487 0
-33 488 0
-32 488 0
-33 -32 489 0
-31 488 0
-33 -31 489 0
-32 -31 489 0
-33 -32 -31 490 0
-30 491 0
-29 491 0
-30 -29 492 0
-28 493 0
-27 493 0
-28 -27 494 0
-26 493 0
-28 -26 494 0
-27 -26 494 0
-28 -27 -26 495 0
-491 496 0
-492 497 0
-493 496 0
-494 497 0
-495 498 0
-491 -493 497 0
-491 -494 498 0
-491 -495 499 0
-492 -493 498 0
-492 -494 499 0
-492 -495 500 0
-488 501 0
-489 502 0
-490 503 0
-496 501 0
-497 502 0
-498 503 0
-499 504 0
-500 505 0
-488 -496 502 0
-488 -497 503 0
-488 -498 504 0
-488 -499 505 0
-488 -500 506 0
-489 -496 503 0
-489 -497 504 0
-489 -498 505 0
-489 -499 506 0
-489 -500 507 0
-490 -496 504 0
-490 -497 505 0
-490 -498 506 0
-490 -499 507 0
-490 -500 508 0
-480 509 0
-482 510 0
-484 511 0
-486 512 0
-501 509 0
-503 510 0
-505 511 0
-507 512 0
-480 -501 510 0
-480 -503 511 0
-480 -505 512 0
-480 -507 513 0
-482 -501 511 0
-482 -503 512 0
-482 -505 513 0
-482 -507 514 0
-484 -501 512 0
-484 -503 513 0
-484 -505 514 0
-486 -501 513 0
-486 -503 514 0
-481 515 0
-485 516 0
-502 515 0
-506 516 0
-481 -502 516 0
-481 -506 517 0
-485 -502 517 0
-483 518 0
-487 519 0
-504 518 0
-508 519 0
-483 -504 519 0
-516 520 0
-518 520 0
-516 -518 521 0
-517 522 0
-519 522 0
-517 -519 523 0
-510 524 0
-515 524 0
-510 -515 525 0
-511 526 0
-520 526 0
-511 -520 527 0
-512 528 0
-521 528 0
-512 -521 529 0
-513 530 0
-522 530 0
-513 -522 531 0
-514 532 0
-523 532 0
-514 -523 533 0
-459 534 0
-461 535 0
-463 536 0
-465 537 0
-509 534 0
-525 535 0
-527 536 0
-529 537 0
-531 538 0
-533 539 0
-459 -509 535 0
-459 -525 536 0
-459 -527 537 0
-459 -529 538 0
-459 -531 539 0
-461 -509 536 0
-461 -525 537 0
-461 -527 538 0
-461 -529 539 0
-463 -509 537 0
-463 -525 538 0
-463 -527 539 0
-465 -509 538 0
-465 -525 539 0
-460 540 0
-464 541 0
-524 540 0
-528 541 0
-532 542 0
-460 -524 541 0
-460 -528 542 0
-464 -524 542 0
-462 543 0
-466 544 0
-526 543 0
-530 544 0
-462 -526 544 0
-541 545 0
-543 545 0
-541 -543 546 0
-542 547 0
-544 547 0
-542 -544 548 0
-535 549 0
-540 549 0
-535 -540 550 0
-536 551 0
-545 551 0
-536 -545 552 0
-537 553 0
-546 553 0
-537 -546 554 0
-538 555 0
-547 555 0
-538 -547 556 0
-539 557 0
-548 557 0
-539 -548 558 0
-438 559 0
-440 560 0
-442 561 0
-444 562 0
-534 559 0
-550 560 0
-552 561 0
-554 562 0
-556 563 0
-558 564 0
-438 -534 560 0
-438 -550 561 0
-438 -552 562 0
-438 -554 563 0
-438 -556 564 0
-440 -534 561 0
-440 -550 562 0
-440 -552 563 0
-440 -554 564 0
-442 -534 562 0
-442 -550 563 0
-442 -552 564 0
-444 -534 563 0
-444 -550 564 0
-439 565 0
-443 566 0
-549 565 0
-553 566 0
-557 567 0
-439 -549 566 0
-439 -553 567 0
-443 -549 567 0
-441 568 0
-445 569 0
-551 568 0
-555 569 0
-441 -551 569 0
-566 570 0
-568 570 0
-566 -568 571 0
-567 572 0
-569 572 0
-567 -569 573 0
-560 574 0
-565 574 0
-560 -565 575 0
-561 576 0
-570 576 0
-561 -570 577 0
-562 578 0
-571 578 0
-562 -571 579 0
-563 580 0
-572 580 0
-563 -572 581 0
-564 582 0
-573 582 0
-564 -573 583 0
-419 584 0
-421 585 0
-423 586 0
-559 584 0
-575 585 0
-577 586 0
-579 587 0
-581 588 0
-583 589 0
-419 -559 585 0
-419 -575 586 0
-419 -577 587 0
-419 -579 588 0
-419 -581 589 0
-421 -559 586 0
-421 -575 587 0
-421 -577 588 0
-421 -579 589 0
-423 -559 587 0
-423 -575 588 0
-423 -577 589 0
-420 590 0
-422 591 0
-424 592 0
-574 590 0
-576 591 0
-578 592 0
-580 593 0
-582 594 0
-420 -574 591 0
-420 -576 592 0
-420 -578 593 0
-420 -580 594 0
-422 -574 592 0
-422 -576 593 0
-422 -578 594 0
-424 -574 593 0
-424 -576 594 0
-585 595 0
-590 595 0
-585 -590 596 0
-586 597 0
-591 597 0
-586 -591 598 0
-587 599 0
-592 599 0
-587 -592 600 0
-588 601 0
-593 601 0
-588 -593 602 0
-589 603 0
-594 603 0
-589 -594 604 0
-407 605 0
-409 606 0
-411 607 0
-584 605 0
-596 606 0
-598 607 0
-600 608 0
-602 609 0
-604 610 0
-407 -584 606 0
-407 -596 607 0
-407 -598 608 0
-407 -600 609 0
-407 -602 610 0
-409 -584 607 0
-409 -596 608 0
-409 -598 609 0
-409 -600 610 0
-411 -584 608 0
-411 -596 609 0
-411 -598 610 0
-408 611 0
-410 612 0
-412 613 0
-595 611 0
-597 612 0
-599 613 0
-601 614 0
-603 615 0
-408 -595 612 0
-408 -597 613 0
-408 -599 614 0
-408 -601 615 0
-410 -595 613 0
-410 -597 614 0
-410 -599 615 0
-412 -595 614 0
-412 -597 615 0
-606 616 0
-611 616 0
-606 -611 617 0
-607 618 0
-612 618 0
-607 -612 619 0
-608 620 0
-613 620 0
-608 -613 621 0
-609 622 0
-614 622 0
-609 -614 623 0
-610 624 0
-615 624 0
-610 -615 625 0
-395 626 0
-397 627 0
-399 628 0
-605 626 0
-617 627 0
-619 628 0
-621 629 0
-623 630 0
-625 631 0
-395 -605 627 0
-395 -617 628 0
-395 -619 629 0
-395 -621 630 0
-395 -623 631 0
-397 -605 628 0
-397 -617 629 0
-397 -619 630 0
-397 -621 631 0
-399 -605 629 0
-399 -617 630 0
-399 -619 631 0
-396 632 0
-398 633 0
-400 634 0
-616 632 0
-618 633 0
-620 634 0
-622 635 0
-624 636 0
-396 -616 633 0
-396 -618 634 0
-396 -620 635 0
-396 -622 636 0
-398 -616 634 0
-398 -618 635 0
-398 -620 636 0
-400 -616 635 0
-400 -618 636 0
-627 637 0
-632 637 0
-627 -632 638 0
-628 639 0
-633 639 0
-628 -633 640 0
-629 641 0
-634 641 0
-629 -634 642 0
-630 643 0
-635 643 0
-630 -635 644 0
-631 645 0
-636 645 0
-631 -636 646 0
-646 0
